8
5

7  20  41  13  34
24  71  28  11  25
69  88  37  10  57
76  64  49  11  29
76  67  47  15  76
8  44  26  12  27
69  58  36  15  20
96  54  38  16  13

33  99  45  11  71
26  31  10  10  97
70  15  87  12  110
73  66  29  11  72
 2  93  48  10  68
44  22  50  18  45
35  51   6  17   95
55  37  73  17  74

93 162 156 724 92

92 214 330 468 414